%-----------------------------------------------------------------------------%
% Vehicle Routing problem
% very simple hand-made problem
%
% The original instance came with travel times but the model was switched
% over to coordinates.
% Replacing the original travel times with random coordinates increased the
% optimum objective value from 34 to 90.
%-----------------------------------------------------------------------------%

N = 7;
MinK = 7;
FixedK = true;
Capacity = 6;
Demands = [4,1,5,2,2,4,3];
X = array1d(0..7, [10, 0, 7, 14, 18, 3, 5, 12]);
Y = array1d(0..7, [10, 11, 3, 9, 1, 20, 3, 15]);
